Set parameter TokenServer to value "hpc-licenses.hpcc.usc.edu"
Set parameter TimeLimit to value 3600
Gurobi Optimizer version 9.5.1 build v9.5.1rc2 (linux64)
Thread count: 20 physical cores, 20 logical processors, using up to 20 threads
Optimize a model with 6007 rows, 4529 columns and 24534 nonzeros
Model fingerprint: 0xb231ac3f
Variable types: 4506 continuous, 23 integer (23 binary)
Coefficient statistics:
  Matrix range     [1e+00, 1e+00]
  Objective range  [7e-04, 1e+00]
  Bounds range     [1e+00, 1e+00]
  RHS range        [1e+00, 8e+01]
Found heuristic solution: objective 296.7417388
Presolve removed 1514 rows and 1511 columns
Presolve time: 0.06s
Presolved: 4493 rows, 3018 columns, 21993 nonzeros
Variable types: 2998 continuous, 20 integer (20 binary)

Root relaxation: objective 3.006443e+02, 2570 iterations, 0.11 seconds (0.14 work units)

    Nodes    |    Current Node    |     Objective Bounds      |     Work
 Expl Unexpl |  Obj  Depth IntInf | Incumbent    BestBd   Gap | It/Node Time

     0     0  300.64433    0    4  296.74174  300.64433  1.32%     -    0s
     0     0  300.55695    0    4  296.74174  300.55695  1.29%     -    0s
     0     0  300.39650    0    4  296.74174  300.39650  1.23%     -    0s
     0     0  300.09002    0    5  296.74174  300.09002  1.13%     -    0s
     0     0  300.09002    0    5  296.74174  300.09002  1.13%     -    0s
H    0     0                     299.4992777  300.09002  0.20%     -    0s
     0     0  299.95572    0    2  299.49928  299.95572  0.15%     -    0s
     0     0  299.95572    0    4  299.49928  299.95572  0.15%     -    0s
     0     0  299.95572    0    5  299.49928  299.95572  0.15%     -    1s
     0     0  299.95572    0    2  299.49928  299.95572  0.15%     -    1s
     0     0  299.95403    0    5  299.49928  299.95403  0.15%     -    1s
     0     0  299.94694    0    5  299.49928  299.94694  0.15%     -    1s
H    0     0                     299.5901288  299.94694  0.12%     -    1s

Cutting planes:
  MIR: 432
  Flow cover: 3
  RLT: 13
  Relax-and-lift: 2

Explored 1 nodes (5223 simplex iterations) in 1.82 seconds (0.78 work units)
Thread count was 20 (of 20 available processors)

Solution count 3: 299.59 299.499 296.742 

Optimal solution found (tolerance 1.00e-04)
Best objective 2.995901288103e+02, best bound 2.995901288103e+02, gap 0.0000%



#########node  1
V1.9
#########node  2
0.0,1.0
#########node  3
1.0,0.0


Total Solving Time 2.2673757076263428
obj value 299.59012881029787
Policy Regret train (Sum) 1.2671902492705043
Best Treatment Found train (%) 86.2
treatment classification acc train (%) 60.8
Policy Regret test (Sum) 171.4960881571544
Best Treatment Found test (%) 52.800000000000004
treatment classification acc test (%) 59.440000000000005
